p tw 460 6901 7 
1 8 
1 61 
2 9 
2 10 
2 62 
3 7 
3 10 
3 81 
4 8 
4 9 
4 82 
5 7 
5 9 
5 451 
6 8 
6 10 
6 452 
11 17 
11 18 
11 131 
12 19 
12 20 
12 132 
13 17 
13 20 
13 211 
14 18 
14 19 
14 212 
15 17 
15 19 
15 381 
16 18 
16 20 
16 382 
21 27 
21 28 
21 71 
22 29 
22 30 
22 72 
23 27 
23 30 
23 101 
24 28 
24 29 
24 102 
25 27 
25 29 
25 371 
26 28 
26 30 
26 372 
31 37 
31 38 
31 41 
32 39 
32 40 
32 42 
33 37 
33 40 
33 311 
34 38 
34 39 
34 312 
35 37 
35 39 
35 431 
36 38 
36 40 
36 432 
41 47 
41 48 
42 49 
42 50 
43 47 
43 50 
43 111 
44 48 
44 49 
44 112 
45 47 
45 49 
45 251 
46 48 
46 50 
46 252 
51 57 
51 58 
51 231 
52 59 
52 60 
52 232 
53 57 
53 60 
53 241 
54 58 
54 59 
54 242 
55 57 
55 59 
55 401 
56 58 
56 60 
56 402 
61 67 
61 68 
62 69 
62 70 
63 67 
63 70 
63 121 
64 68 
64 69 
64 122 
65 67 
65 69 
65 301 
66 68 
66 70 
66 302 
71 77 
71 78 
72 79 
72 80 
73 77 
73 80 
73 391 
74 78 
74 79 
74 392 
75 77 
75 79 
75 433 
76 78 
76 80 
76 434 
81 87 
81 88 
82 89 
82 90 
83 87 
83 90 
83 201 
84 88 
84 89 
84 202 
85 87 
85 89 
85 441 
86 88 
86 90 
86 442 
91 97 
91 98 
91 171 
92 99 
92 100 
92 172 
93 97 
93 100 
93 253 
94 98 
94 99 
94 254 
95 97 
95 99 
95 443 
96 98 
96 100 
96 444 
101 107 
101 108 
102 109 
102 110 
103 107 
103 110 
103 373 
104 108 
104 109 
104 374 
105 107 
105 109 
105 445 
106 108 
106 110 
106 446 
111 117 
111 118 
112 119 
112 120 
113 117 
113 120 
113 321 
114 118 
114 119 
114 322 
115 117 
115 119 
115 453 
116 118 
116 120 
116 454 
121 127 
121 128 
122 129 
122 130 
123 127 
123 130 
123 291 
124 128 
124 129 
124 292 
125 127 
125 129 
125 421 
126 128 
126 130 
126 422 
131 137 
131 138 
132 139 
132 140 
133 137 
133 140 
133 255 
134 138 
134 139 
134 256 
135 137 
135 139 
135 331 
136 138 
136 140 
136 332 
141 147 
141 148 
141 181 
142 149 
142 150 
142 182 
143 147 
143 150 
143 333 
144 148 
144 149 
144 334 
145 147 
145 149 
145 341 
146 148 
146 150 
146 342 
151 157 
151 158 
151 243 
152 159 
152 160 
152 244 
153 157 
153 160 
153 343 
154 158 
154 159 
154 344 
155 157 
155 159 
155 361 
156 158 
156 160 
156 362 
161 167 
161 168 
161 203 
162 169 
162 170 
162 204 
163 167 
163 170 
163 303 
164 168 
164 169 
164 304 
165 167 
165 169 
165 403 
166 168 
166 170 
166 404 
171 177 
171 178 
172 179 
172 180 
173 177 
173 180 
173 261 
174 178 
174 179 
174 262 
175 177 
175 179 
175 435 
176 178 
176 180 
176 436 
181 187 
181 188 
182 189 
182 190 
183 187 
183 190 
183 233 
184 188 
184 189 
184 234 
185 187 
185 189 
185 293 
186 188 
186 190 
186 294 
191 197 
191 198 
191 281 
192 199 
192 200 
192 282 
193 197 
193 200 
193 335 
194 198 
194 199 
194 336 
195 197 
195 199 
195 383 
196 198 
196 200 
196 384 
201 207 
201 208 
202 209 
202 210 
203 207 
203 210 
204 208 
204 209 
205 207 
205 209 
205 271 
206 208 
206 210 
206 272 
211 217 
211 218 
212 219 
212 220 
213 217 
213 220 
213 273 
214 218 
214 219 
214 274 
215 217 
215 219 
215 393 
216 218 
216 220 
216 394 
221 227 
221 228 
221 245 
222 229 
222 230 
222 246 
223 227 
223 230 
223 283 
224 228 
224 229 
224 284 
225 227 
225 229 
225 295 
226 228 
226 230 
226 296 
231 237 
231 238 
232 239 
232 240 
233 237 
233 240 
234 238 
234 239 
235 237 
235 239 
235 351 
236 238 
236 240 
236 352 
241 247 
241 248 
242 249 
242 250 
243 247 
243 250 
244 248 
244 249 
245 247 
245 249 
246 248 
246 250 
251 257 
251 258 
252 259 
252 260 
253 257 
253 260 
254 258 
254 259 
255 257 
255 259 
256 258 
256 260 
261 267 
261 268 
262 269 
262 270 
263 267 
263 270 
263 395 
264 268 
264 269 
264 396 
265 267 
265 269 
265 411 
266 268 
266 270 
266 412 
271 277 
271 278 
272 279 
272 280 
273 277 
273 280 
274 278 
274 279 
275 277 
275 279 
275 353 
276 278 
276 280 
276 354 
281 287 
281 288 
282 289 
282 290 
283 287 
283 290 
284 288 
284 289 
285 287 
285 289 
285 313 
286 288 
286 290 
286 314 
291 297 
291 298 
292 299 
292 300 
293 297 
293 300 
294 298 
294 299 
295 297 
295 299 
296 298 
296 300 
301 307 
301 308 
302 309 
302 310 
303 307 
303 310 
304 308 
304 309 
305 307 
305 309 
305 413 
306 308 
306 310 
306 414 
311 317 
311 318 
312 319 
312 320 
313 317 
313 320 
314 318 
314 319 
315 317 
315 319 
315 375 
316 318 
316 320 
316 376 
321 327 
321 328 
322 329 
322 330 
323 327 
323 330 
323 345 
324 328 
324 329 
324 346 
325 327 
325 329 
325 363 
326 328 
326 330 
326 364 
331 337 
331 338 
332 339 
332 340 
333 337 
333 340 
334 338 
334 339 
335 337 
335 339 
336 338 
336 340 
341 347 
341 348 
342 349 
342 350 
343 347 
343 350 
344 348 
344 349 
345 347 
345 349 
346 348 
346 350 
351 357 
351 358 
352 359 
352 360 
353 357 
353 360 
354 358 
354 359 
355 357 
355 359 
355 455 
356 358 
356 360 
356 456 
361 367 
361 368 
362 369 
362 370 
363 367 
363 370 
364 368 
364 369 
365 367 
365 369 
365 385 
366 368 
366 370 
366 386 
371 377 
371 378 
372 379 
372 380 
373 377 
373 380 
374 378 
374 379 
375 377 
375 379 
376 378 
376 380 
381 387 
381 388 
382 389 
382 390 
383 387 
383 390 
384 388 
384 389 
385 387 
385 389 
386 388 
386 390 
391 397 
391 398 
392 399 
392 400 
393 397 
393 400 
394 398 
394 399 
395 397 
395 399 
396 398 
396 400 
401 407 
401 408 
402 409 
402 410 
403 407 
403 410 
404 408 
404 409 
405 407 
405 409 
405 423 
406 408 
406 410 
406 424 
411 417 
411 418 
412 419 
412 420 
413 417 
413 420 
414 418 
414 419 
415 417 
415 419 
415 425 
416 418 
416 420 
416 426 
421 427 
421 428 
422 429 
422 430 
423 427 
423 430 
424 428 
424 429 
425 427 
425 429 
426 428 
426 430 
431 437 
431 438 
432 439 
432 440 
433 437 
433 440 
434 438 
434 439 
435 437 
435 439 
436 438 
436 440 
441 447 
441 448 
442 449 
442 450 
443 447 
443 450 
444 448 
444 449 
445 447 
445 449 
446 448 
446 450 
451 457 
451 458 
452 459 
452 460 
453 457 
453 460 
454 458 
454 459 
455 457 
455 459 
456 458 
456 460 
